x low 4.00
p edge 286 828
n 0 1.00
n 1 1.00
n 7 1.00
n 2 1.00
n 3 1.00
n 148 1.00
n 149 1.00
n 92 1.00
n 147 1.00
n 144 1.00
n 146 1.00
n 8 1.00
n 20 1.00
n 9 1.00
n 142 1.00
n 10 1.00
n 87 1.00
n 88 1.00
n 11 1.00
n 12 1.00
n 13 1.00
n 14 1.00
n 15 1.00
n 84 1.00
n 89 1.00
n 16 1.00
n 18 1.00
n 86 1.00
n 17 1.00
n 19 1.00
n 83 1.00
n 82 1.00
n 22 1.00
n 21 1.00
n 78 1.00
n 80 1.00
n 23 1.00
n 74 1.00
n 79 1.00
n 25 1.00
n 71 1.00
n 26 1.00
n 72 1.00
n 27 1.00
n 28 1.00
n 73 1.00
n 47 1.00
n 46 1.00
n 48 1.00
n 49 1.00
n 50 1.00
n 51 1.00
n 52 1.00
n 40 1.00
n 39 1.00
n 44 1.00
n 45 1.00
n 36 1.00
n 35 1.00
n 34 1.00
n 31 1.00
n 30 1.00
n 29 1.00
n 70 1.00
n 68 1.00
n 105 1.00
n 270 1.00
n 33 1.00
n 66 1.00
n 32 1.00
n 62 1.00
n 65 1.00
n 67 1.00
n 37 1.00
n 61 1.00
n 41 1.00
n 58 1.00
n 38 1.00
n 42 1.00
n 43 1.00
n 56 1.00
n 59 1.00
n 57 1.00
n 251 1.00
n 111 1.00
n 109 1.00
n 115 1.00
n 113 1.00
n 60 1.00
n 106 1.00
n 241 1.00
n 244 1.00
n 64 1.00
n 63 1.00
n 104 1.00
n 69 1.00
n 166 1.00
n 103 1.00
n 129 1.00
n 167 1.00
n 76 1.00
n 77 1.00
n 75 1.00
n 81 1.00
n 101 1.00
n 102 1.00
n 94 1.00
n 97 1.00
n 98 1.00
n 85 1.00
n 90 1.00
n 93 1.00
n 140 1.00
n 141 1.00
n 145 1.00
n 143 1.00
n 95 1.00
n 96 1.00
n 138 1.00
n 100 1.00
n 139 1.00
n 135 1.00
n 137 1.00
n 128 1.00
n 132 1.00
n 236 1.00
n 239 1.00
n 107 1.00
n 169 1.00
n 195 1.00
n 108 1.00
n 110 1.00
n 127 1.00
n 112 1.00
n 122 1.00
n 123 1.00
n 114 1.00
n 116 1.00
n 117 1.00
n 118 1.00
n 179 1.00
n 180 1.00
n 181 1.00
n 182 1.00
n 183 1.00
n 256 1.00
n 120 1.00
n 119 1.00
n 121 1.00
n 124 1.00
n 174 1.00
n 177 1.00
n 185 1.00
n 125 1.00
n 126 1.00
n 176 1.00
n 171 1.00
n 173 1.00
n 168 1.00
n 133 1.00
n 130 1.00
n 164 1.00
n 134 1.00
n 136 1.00
n 162 1.00
n 163 1.00
n 161 1.00
n 160 1.00
n 205 1.00
n 158 1.00
n 157 1.00
n 156 1.00
n 155 1.00
n 152 1.00
n 154 1.00
n 153 1.00
n 150 1.00
n 151 1.00
n 297 1.00
n 295 1.00
n 296 1.00
n 213 1.00
n 293 1.00
n 212 1.00
n 216 1.00
n 290 1.00
n 288 1.00
n 159 1.00
n 208 1.00
n 211 1.00
n 210 1.00
n 201 1.00
n 298 1.00
n 165 1.00
n 200 1.00
n 196 1.00
n 197 1.00
n 172 1.00
n 194 1.00
n 190 1.00
n 170 1.00
n 175 1.00
n 178 1.00
n 189 1.00
n 186 1.00
n 252 1.00
n 188 1.00
n 184 1.00
n 255 1.00
n 187 1.00
n 249 1.00
n 262 1.00
n 265 1.00
n 191 1.00
n 250 1.00
n 193 1.00
n 192 1.00
n 268 1.00
n 269 1.00
n 235 1.00
n 233 1.00
n 198 1.00
n 234 1.00
n 199 1.00
n 232 1.00
n 231 1.00
n 227 1.00
n 202 1.00
n 228 1.00
n 230 1.00
n 203 1.00
n 206 1.00
n 204 1.00
n 222 1.00
n 225 1.00
n 209 1.00
n 207 1.00
n 223 1.00
n 219 1.00
n 221 1.00
n 217 1.00
n 214 1.00
n 289 1.00
n 292 1.00
n 215 1.00
n 220 1.00
n 286 1.00
n 218 1.00
n 285 1.00
n 287 1.00
n 283 1.00
n 224 1.00
n 226 1.00
n 281 1.00
n 279 1.00
n 282 1.00
n 229 1.00
n 275 1.00
n 278 1.00
n 277 1.00
n 276 1.00
n 272 1.00
n 273 1.00
n 237 1.00
n 240 1.00
n 271 1.00
n 238 1.00
n 242 1.00
n 245 1.00
n 246 1.00
n 243 1.00
n 248 1.00
n 247 1.00
n 267 1.00
n 253 1.00
n 254 1.00
n 259 1.00
n 258 1.00
n 260 1.00
n 257 1.00
n 261 1.00
n 263 1.00
n 264 1.00
n 266 1.00
n 274 1.00
n 280 1.00
e 0 1
e 0 7
e 0 2
e 0 3
e 0 148
e 0 149
e 1 7
e 1 2
e 1 92
e 1 147
e 1 144
e 2 3
e 2 146
e 2 147
e 3 148
e 3 146
e 7 8
e 7 20
e 7 92
e 8 20
e 8 9
e 8 92
e 8 142
e 9 20
e 9 10
e 9 87
e 9 88
e 9 142
e 10 20
e 10 11
e 10 87
e 11 20
e 11 12
e 11 13
e 11 87
e 12 20
e 12 14
e 12 13
e 12 15
e 13 15
e 13 84
e 13 89
e 13 87
e 14 20
e 14 16
e 14 15
e 15 16
e 15 18
e 15 84
e 15 86
e 16 20
e 16 17
e 16 18
e 17 20
e 17 18
e 17 19
e 18 19
e 18 83
e 18 82
e 18 86
e 19 20
e 19 22
e 19 21
e 19 78
e 19 80
e 19 83
e 20 22
e 21 23
e 21 22
e 21 74
e 21 79
e 21 78
e 22 23
e 23 74
e 25 71
e 25 26
e 25 74
e 26 71
e 26 72
e 26 27
e 27 28
e 27 73
e 27 72
e 28 47
e 28 46
e 28 48
e 28 49
e 28 50
e 28 51
e 28 52
e 28 40
e 28 39
e 28 44
e 28 45
e 28 36
e 28 35
e 28 34
e 28 31
e 28 30
e 28 29
e 28 73
e 28 70
e 28 68
e 28 105
e 28 270
e 29 30
e 29 33
e 29 68
e 29 66
e 30 31
e 30 33
e 30 32
e 31 34
e 31 32
e 32 33
e 32 34
e 32 62
e 32 65
e 33 65
e 33 66
e 33 67
e 34 35
e 34 62
e 35 36
e 35 37
e 35 62
e 35 61
e 36 39
e 36 41
e 36 37
e 37 41
e 37 61
e 37 58
e 38 44
e 38 42
e 38 43
e 38 56
e 38 41
e 38 59
e 38 58
e 39 40
e 39 41
e 39 42
e 40 44
e 40 42
e 41 42
e 41 58
e 42 44
e 43 44
e 43 56
e 43 57
e 43 251
e 45 46
e 45 111
e 45 109
e 45 105
e 46 47
e 46 111
e 47 48
e 47 111
e 48 49
e 48 111
e 49 50
e 49 111
e 50 51
e 50 115
e 50 111
e 51 52
e 51 115
e 52 115
e 56 59
e 56 57
e 57 59
e 57 60
e 57 251
e 58 59
e 58 61
e 58 60
e 58 106
e 59 60
e 60 106
e 60 241
e 60 244
e 60 251
e 61 62
e 61 64
e 61 106
e 62 65
e 62 64
e 62 63
e 63 65
e 63 64
e 63 67
e 63 104
e 64 106
e 64 104
e 65 67
e 66 68
e 66 67
e 66 69
e 67 104
e 67 69
e 67 166
e 68 70
e 68 69
e 69 70
e 69 103
e 69 129
e 69 166
e 69 167
e 70 73
e 70 103
e 71 72
e 71 74
e 71 76
e 71 77
e 72 73
e 72 77
e 72 103
e 73 103
e 74 79
e 74 76
e 75 76
e 75 79
e 75 77
e 75 81
e 75 101
e 76 79
e 76 77
e 77 103
e 77 102
e 77 101
e 78 79
e 78 80
e 78 81
e 79 81
e 80 81
e 80 83
e 80 101
e 81 101
e 82 83
e 82 86
e 82 94
e 82 97
e 82 98
e 83 98
e 83 101
e 84 89
e 84 86
e 84 85
e 85 89
e 85 86
e 85 90
e 85 93
e 86 93
e 86 94
e 87 89
e 87 88
e 88 89
e 88 90
e 88 140
e 88 142
e 88 141
e 89 90
e 90 93
e 90 140
e 92 142
e 92 145
e 92 144
e 92 143
e 93 94
e 93 95
e 93 96
e 93 138
e 93 140
e 94 97
e 94 95
e 95 97
e 95 96
e 96 97
e 96 138
e 96 100
e 96 139
e 97 98
e 97 100
e 98 101
e 98 100
e 100 101
e 100 135
e 100 137
e 100 139
e 101 102
e 101 135
e 102 103
e 102 128
e 102 132
e 102 135
e 103 128
e 103 129
e 104 106
e 104 166
e 104 236
e 104 239
e 104 241
e 105 109
e 105 107
e 105 169
e 105 195
e 105 270
e 106 241
e 107 109
e 107 108
e 107 169
e 108 109
e 108 110
e 108 127
e 108 169
e 109 111
e 109 110
e 110 112
e 110 111
e 110 122
e 110 127
e 111 112
e 111 115
e 111 123
e 112 123
e 112 122
e 113 115
e 113 114
e 113 116
e 114 115
e 114 116
e 114 117
e 114 118
e 115 117
e 115 123
e 116 118
e 116 179
e 116 180
e 116 181
e 116 182
e 116 183
e 116 256
e 117 123
e 117 118
e 117 120
e 117 119
e 117 121
e 118 119
e 118 179
e 119 121
e 119 179
e 120 123
e 120 121
e 120 124
e 120 174
e 120 177
e 121 179
e 121 180
e 121 177
e 121 185
e 122 123
e 122 125
e 122 126
e 122 127
e 123 125
e 123 124
e 124 125
e 124 174
e 125 126
e 125 174
e 125 176
e 126 127
e 126 171
e 126 176
e 127 171
e 127 173
e 127 168
e 127 169
e 128 129
e 128 132
e 129 132
e 129 133
e 129 130
e 129 167
e 130 133
e 130 164
e 130 167
e 132 135
e 132 134
e 132 133
e 133 134
e 133 136
e 133 162
e 133 163
e 133 164
e 134 135
e 134 136
e 135 136
e 135 137
e 136 137
e 136 162
e 136 161
e 137 161
e 137 139
e 137 160
e 137 205
e 138 140
e 138 139
e 139 140
e 139 158
e 139 160
e 140 141
e 140 158
e 141 142
e 141 158
e 141 157
e 142 143
e 142 157
e 142 156
e 142 155
e 143 145
e 143 155
e 144 145
e 144 147
e 144 152
e 144 154
e 144 153
e 145 154
e 145 155
e 146 147
e 146 148
e 146 150
e 146 151
e 147 152
e 147 151
e 148 150
e 148 149
e 149 150
e 149 297
e 150 151
e 150 297
e 150 295
e 151 152
e 151 295
e 151 296
e 152 153
e 152 213
e 152 296
e 152 293
e 153 154
e 153 213
e 154 155
e 154 213
e 155 156
e 155 213
e 156 157
e 156 213
e 156 212
e 156 216
e 156 290
e 156 288
e 157 158
e 157 212
e 158 160
e 158 159
e 158 208
e 158 211
e 158 212
e 159 160
e 159 210
e 159 208
e 160 205
e 160 210
e 161 162
e 161 163
e 161 205
e 161 201
e 161 298
e 162 163
e 163 164
e 163 165
e 163 200
e 163 201
e 164 165
e 164 167
e 165 200
e 165 167
e 166 167
e 166 196
e 166 236
e 167 196
e 167 197
e 167 200
e 168 173
e 168 169
e 168 172
e 168 194
e 168 190
e 169 194
e 169 195
e 170 176
e 170 171
e 170 172
e 170 175
e 170 178
e 171 176
e 171 173
e 171 172
e 172 173
e 172 178
e 172 190
e 172 189
e 174 176
e 174 175
e 174 177
e 175 176
e 175 178
e 175 177
e 177 178
e 177 186
e 177 185
e 177 252
e 178 186
e 178 188
e 178 189
e 179 180
e 180 181
e 180 185
e 181 185
e 181 182
e 181 184
e 182 184
e 182 183
e 183 184
e 183 255
e 183 256
e 184 185
e 184 255
e 185 255
e 185 252
e 186 188
e 186 187
e 186 252
e 187 189
e 187 188
e 187 252
e 187 249
e 187 262
e 187 265
e 188 189
e 189 190
e 189 191
e 189 250
e 189 249
e 190 194
e 190 193
e 190 191
e 191 193
e 191 192
e 191 250
e 192 195
e 192 193
e 192 250
e 192 268
e 192 269
e 193 194
e 193 195
e 194 195
e 195 268
e 195 270
e 196 197
e 196 236
e 196 235
e 197 200
e 197 235
e 197 233
e 197 198
e 197 234
e 198 199
e 198 200
e 198 232
e 198 231
e 198 234
e 199 200
e 199 201
e 199 227
e 199 232
e 200 201
e 201 298
e 201 227
e 201 202
e 202 227
e 202 298
e 202 228
e 202 230
e 203 206
e 203 204
e 203 222
e 203 298
e 203 225
e 204 206
e 204 205
e 204 298
e 205 210
e 205 206
e 205 298
e 206 210
e 206 209
e 206 207
e 206 223
e 206 222
e 207 209
e 207 208
e 207 219
e 207 223
e 208 210
e 208 209
e 208 211
e 208 219
e 208 221
e 209 210
e 211 212
e 211 221
e 211 217
e 212 217
e 212 216
e 213 214
e 213 293
e 213 290
e 214 293
e 214 290
e 214 289
e 214 292
e 215 216
e 215 217
e 215 220
e 215 286
e 215 218
e 215 285
e 216 217
e 216 286
e 216 287
e 216 288
e 217 221
e 217 220
e 218 223
e 218 219
e 218 220
e 218 222
e 218 283
e 218 285
e 219 223
e 219 221
e 219 220
e 220 221
e 222 223
e 222 225
e 222 283
e 224 226
e 224 225
e 224 230
e 224 283
e 224 281
e 224 279
e 224 282
e 225 298
e 225 226
e 225 283
e 226 298
e 226 228
e 226 230
e 227 230
e 227 229
e 227 232
e 228 298
e 228 230
e 229 230
e 229 232
e 229 275
e 229 281
e 229 278
e 229 277
e 230 281
e 231 232
e 231 276
e 231 234
e 232 276
e 232 275
e 233 235
e 233 234
e 233 272
e 233 273
e 234 273
e 234 276
e 235 236
e 235 237
e 235 272
e 236 239
e 236 240
e 236 237
e 237 240
e 237 272
e 237 271
e 238 241
e 238 239
e 238 242
e 238 240
e 238 271
e 238 245
e 239 241
e 239 240
e 240 271
e 241 244
e 241 246
e 241 242
e 242 246
e 242 245
e 243 248
e 243 244
e 243 245
e 243 271
e 244 246
e 244 251
e 244 245
e 244 247
e 244 248
e 245 246
e 245 271
e 247 251
e 247 248
e 247 271
e 248 271
e 249 250
e 249 265
e 249 267
e 250 267
e 250 269
e 252 255
e 252 253
e 252 254
e 252 262
e 253 255
e 253 254
e 253 259
e 253 258
e 253 256
e 254 262
e 254 259
e 254 260
e 255 256
e 256 258
e 256 257
e 257 258
e 257 261
e 257 263
e 257 264
e 257 266
e 257 269
e 258 259
e 258 261
e 259 260
e 259 261
e 260 262
e 260 261
e 260 263
e 261 263
e 262 265
e 262 263
e 263 265
e 263 264
e 264 265
e 264 266
e 265 267
e 265 266
e 266 267
e 266 269
e 267 269
e 268 270
e 268 269
e 269 270
e 271 272
e 271 277
e 272 273
e 272 277
e 273 276
e 273 274
e 273 277
e 274 276
e 274 275
e 274 278
e 274 277
e 275 276
e 275 278
e 277 281
e 277 278
e 277 280
e 279 283
e 279 282
e 279 280
e 280 282
e 280 281
e 280 283
e 280 285
e 280 287
e 280 288
e 280 290
e 280 289
e 281 282
e 283 285
e 285 286
e 285 287
e 286 287
e 287 288
e 288 290
e 289 290
e 289 292
e 289 297
e 292 293
e 292 296
e 292 295
e 292 297
e 293 296
e 295 296
e 295 297
e 23 25
e 52 113
